2867405.0
1197
0 1 2 3 6 7 10 11 12 13 15 16 18 20 21 22 25 27 28 29 30 33 34 35 37 38 39 40 41 42 43 44 45 46 47 48 50 56 58 59 60 63 64 65 66 67 68 69 71 73 75 76 77 79 80 81 83 84 86 87 88 90 91 92 93 94 95 96 98 99 